60
1 0 8
2 0 9
2 1 5
3 0 10
3 1 8
3 2 10
4 0 6
4 1 5
4 2 5
4 3 8
5 0 1
5 1 8
5 2 8
5 3 2
5 4 8
6 0 8
6 1 9
6 2 5
6 3 9
6 4 7
6 5 9
7 0 7
7 1 9
7 2 8
7 3 9
7 4 6
7 5 8
7 6 4
8 0 2
8 1 9
8 2 10
8 3 5
8 4 4
8 5 8
8 6 2
8 7 8
9 0 6
9 1 7
9 2 6
9 3 1
9 4 7
9 5 9
9 6 8
9 7 2
9 8 6
10 0 7
10 1 7
10 2 10
10 3 9
10 4 4
10 5 9
10 6 4
10 7 5
10 8 9
10 9 2
11 0 2
11 1 2
11 2 6
11 3 5
11 4 8
11 5 4
11 6 4
11 7 2
11 8 3
11 9 1
11 10 1
12 0 3
12 1 8
12 2 3
12 3 8
12 4 5
12 5 10
12 6 8
12 7 6
12 8 2
12 9 5
12 10 8
12 11 3
13 0 6
13 1 3
13 2 7
13 3 2
13 4 4
13 5 6
13 6 2
13 7 5
13 8 1
13 9 1
13 10 2
13 11 7
13 12 9
14 0 2
14 1 8
14 2 10
14 3 4
14 4 3
14 5 9
14 6 3
14 7 8
14 8 5
14 9 6
14 10 10
14 11 10
14 12 5
14 13 7
15 0 9
15 1 3
15 2 5
15 3 4
15 4 9
15 5 7
15 6 3
15 7 9
15 8 8
15 9 1
15 10 9
15 11 2
15 12 9
15 13 1
15 14 5
16 0 9
16 1 9
16 2 7
16 3 2
16 4 1
16 5 10
16 6 3
16 7 4
16 8 10
16 9 2
16 10 2
16 11 10
16 12 10
16 13 4
16 14 1
16 15 8
17 0 1
17 1 4
17 2 9
17 3 10
17 4 10
17 5 1
17 6 10
17 7 7
17 8 3
17 9 4
17 10 4
17 11 4
17 12 7
17 13 3
17 14 6
17 15 5
17 16 3
18 0 5
18 1 1
18 2 1
18 3 4
18 4 9
18 5 7
18 6 5
18 7 6
18 8 10
18 9 1
18 10 4
18 11 6
18 12 4
18 13 5
18 14 10
18 15 1
18 16 9
18 17 9
19 0 3
19 1 8
19 2 5
19 3 1
19 4 5
19 5 6
19 6 9
19 7 4
19 8 6
19 9 5
19 10 1
19 11 2
19 12 4
19 13 9
19 14 9
19 15 9
19 16 4
19 17 7
19 18 1
20 0 9
20 1 3
20 2 2
20 3 1
20 4 4
20 5 6
20 6 5
20 7 4
20 8 1
20 9 10
20 10 4
20 11 6
20 12 2
20 13 4
20 14 9
20 15 3
20 16 4
20 17 8
20 18 8
20 19 3
21 0 10
21 1 8
21 2 10
21 3 1
21 4 1
21 5 3
21 6 5
21 7 4
21 8 2
21 9 3
21 10 4
21 11 9
21 12 1
21 13 3
21 14 8
21 15 7
21 16 10
21 17 10
21 18 10
21 19 8
21 20 3
22 0 5
22 1 1
22 2 9
22 3 2
22 4 8
22 5 7
22 6 1
22 7 8
22 8 8
22 9 4
22 10 3
22 11 4
22 12 3
22 13 1
22 14 1
22 15 5
22 16 4
22 17 4
22 18 2
22 19 2
22 20 5
22 21 5
23 0 4
23 1 5
23 2 1
23 3 7
23 4 3
23 5 9
23 6 5
23 7 8
23 8 10
23 9 7
23 10 6
23 11 6
23 12 1
23 13 3
23 14 2
23 15 1
23 16 5
23 17 5
23 18 6
23 19 8
23 20 3
23 21 5
23 22 8
24 0 10
24 1 4
24 2 10
24 3 5
24 4 1
24 5 4
24 6 6
24 7 6
24 8 1
24 9 7
24 10 2
24 11 5
24 12 6
24 13 2
24 14 8
24 15 7
24 16 3
24 17 1
24 18 10
24 19 9
24 20 4
24 21 8
24 22 4
24 23 10
25 0 2
25 1 10
25 2 1
25 3 3
25 4 3
25 5 3
25 6 2
25 7 10
25 8 3
25 9 9
25 10 10
25 11 2
25 12 2
25 13 6
25 14 8
25 15 5
25 16 9
25 17 9
25 18 2
25 19 1
25 20 9
25 21 3
25 22 3
25 23 3
25 24 8
26 0 10
26 1 7
26 2 8
26 3 2
26 4 2
26 5 9
26 6 3
26 7 5
26 8 10
26 9 7
26 10 5
26 11 5
26 12 9
26 13 9
26 14 10
26 15 8
26 16 7
26 17 3
26 18 8
26 19 5
26 20 3
26 21 4
26 22 6
26 23 7
26 24 3
26 25 10
27 0 9
27 1 6
27 2 6
27 3 7
27 4 4
27 5 9
27 6 3
27 7 6
27 8 4
27 9 9
27 10 5
27 11 7
27 12 7
27 13 5
27 14 4
27 15 3
27 16 7
27 17 7
27 18 8
27 19 10
27 20 5
27 21 4
27 22 7
27 23 10
27 24 10
27 25 7
27 26 10
28 0 7
28 1 4
28 2 2
28 3 2
28 4 9
28 5 5
28 6 1
28 7 4
28 8 9
28 9 3
28 10 2
28 11 9
28 12 1
28 13 6
28 14 10
28 15 6
28 16 10
28 17 7
28 18 8
28 19 9
28 20 10
28 21 8
28 22 5
28 23 4
28 24 1
28 25 2
28 26 9
28 27 6
29 0 8
29 1 8
29 2 4
29 3 3
29 4 9
29 5 1
29 6 4
29 7 6
29 8 7
29 9 2
29 10 3
29 11 6
29 12 2
29 13 2
29 14 5
29 15 5
29 16 5
29 17 10
29 18 10
29 19 10
29 20 10
29 21 8
29 22 10
29 23 10
29 24 9
29 25 3
29 26 8
29 27 10
29 28 7
30 0 7
30 1 3
30 2 4
30 3 1
30 4 10
30 5 10
30 6 4
30 7 9
30 8 5
30 9 9
30 10 2
30 11 6
30 12 2
30 13 3
30 14 5
30 15 5
30 16 4
30 17 2
30 18 8
30 19 6
30 20 4
30 21 2
30 22 5
30 23 5
30 24 2
30 25 4
30 26 1
30 27 10
30 28 10
30 29 7
31 0 4
31 1 1
31 2 3
31 3 1
31 4 2
31 5 10
31 6 10
31 7 4
31 8 5
31 9 2
31 10 9
31 11 2
31 12 6
31 13 10
31 14 1
31 15 1
31 16 9
31 17 9
31 18 2
31 19 6
31 20 10
31 21 9
31 22 6
31 23 5
31 24 9
31 25 10
31 26 9
31 27 3
31 28 4
31 29 1
31 30 1
32 0 7
32 1 10
32 2 4
32 3 5
32 4 8
32 5 10
32 6 10
32 7 8
32 8 5
32 9 3
32 10 7
32 11 2
32 12 7
32 13 7
32 14 8
32 15 2
32 16 2
32 17 5
32 18 8
32 19 5
32 20 7
32 21 5
32 22 2
32 23 3
32 24 3
32 25 7
32 26 10
32 27 4
32 28 5
32 29 2
32 30 7
32 31 9
33 0 9
33 1 5
33 2 5
33 3 8
33 4 4
33 5 7
33 6 10
33 7 3
33 8 3
33 9 8
33 10 9
33 11 3
33 12 3
33 13 1
33 14 8
33 15 10
33 16 9
33 17 6
33 18 6
33 19 10
33 20 10
33 21 3
33 22 8
33 23 5
33 24 6
33 25 1
33 26 10
33 27 2
33 28 3
33 29 10
33 30 9
33 31 8
33 32 7
34 0 3
34 1 7
34 2 7
34 3 5
34 4 10
34 5 6
34 6 4
34 7 5
34 8 10
34 9 3
34 10 7
34 11 2
34 12 6
34 13 10
34 14 3
34 15 2
34 16 2
34 17 9
34 18 10
34 19 7
34 20 2
34 21 3
34 22 6
34 23 4
34 24 1
34 25 1
34 26 7
34 27 6
34 28 3
34 29 1
34 30 2
34 31 10
34 32 5
34 33 9
35 0 5
35 1 1
35 2 2
35 3 9
35 4 8
35 5 10
35 6 7
35 7 8
35 8 10
35 9 4
35 10 3
35 11 4
35 12 4
35 13 3
35 14 4
35 15 1
35 16 3
35 17 3
35 18 10
35 19 5
35 20 8
35 21 5
35 22 1
35 23 2
35 24 1
35 25 8
35 26 9
35 27 5
35 28 6
35 29 8
35 30 9
35 31 5
35 32 1
35 33 7
35 34 3
36 0 10
36 1 10
36 2 9
36 3 3
36 4 6
36 5 7
36 6 1
36 7 6
36 8 7
36 9 4
36 10 7
36 11 10
36 12 6
36 13 2
36 14 5
36 15 9
36 16 1
36 17 4
36 18 5
36 19 3
36 20 8
36 21 6
36 22 3
36 23 10
36 24 2
36 25 1
36 26 6
36 27 10
36 28 10
36 29 10
36 30 10
36 31 6
36 32 2
36 33 1
36 34 6
36 35 2
37 0 7
37 1 5
37 2 6
37 3 8
37 4 4
37 5 6
37 6 9
37 7 9
37 8 5
37 9 10
37 10 4
37 11 6
37 12 9
37 13 7
37 14 3
37 15 7
37 16 7
37 17 8
37 18 10
37 19 9
37 20 9
37 21 7
37 22 4
37 23 5
37 24 2
37 25 5
37 26 8
37 27 1
37 28 5
37 29 10
37 30 2
37 31 1
37 32 10
37 33 8
37 34 6
37 35 5
37 36 8
38 0 1
38 1 5
38 2 3
38 3 5
38 4 8
38 5 1
38 6 4
38 7 8
38 8 4
38 9 5
38 10 2
38 11 3
38 12 1
38 13 6
38 14 6
38 15 2
38 16 7
38 17 8
38 18 8
38 19 1
38 20 9
38 21 10
38 22 7
38 23 2
38 24 8
38 25 1
38 26 3
38 27 5
38 28 8
38 29 6
38 30 9
38 31 7
38 32 10
38 33 8
38 34 3
38 35 9
38 36 3
38 37 9
39 0 10
39 1 2
39 2 4
39 3 10
39 4 3
39 5 2
39 6 1
39 7 2
39 8 7
39 9 8
39 10 5
39 11 5
39 12 3
39 13 6
39 14 4
39 15 6
39 16 10
39 17 8
39 18 3
39 19 3
39 20 4
39 21 7
39 22 7
39 23 2
39 24 3
39 25 5
39 26 10
39 27 3
39 28 2
39 29 6
39 30 6
39 31 8
39 32 7
39 33 4
39 34 7
39 35 2
39 36 2
39 37 2
39 38 3
40 0 4
40 1 2
40 2 3
40 3 4
40 4 10
40 5 8
40 6 6
40 7 10
40 8 4
40 9 3
40 10 10
40 11 1
40 12 8
40 13 5
40 14 9
40 15 7
40 16 10
40 17 3
40 18 7
40 19 6
40 20 10
40 21 9
40 22 7
40 23 5
40 24 10
40 25 1
40 26 3
40 27 1
40 28 3
40 29 6
40 30 1
40 31 10
40 32 9
40 33 7
40 34 3
40 35 5
40 36 4
40 37 1
40 38 8
40 39 9
41 0 10
41 1 1
41 2 5
41 3 7
41 4 10
41 5 6
41 6 9
41 7 1
41 8 2
41 9 7
41 10 5
41 11 6
41 12 5
41 13 6
41 14 8
41 15 10
41 16 10
41 17 9
41 18 2
41 19 8
41 20 1
41 21 3
41 22 1
41 23 10
41 24 10
41 25 8
41 26 9
41 27 7
41 28 2
41 29 1
41 30 6
41 31 6
41 32 7
41 33 7
41 34 2
41 35 2
41 36 1
41 37 10
41 38 10
41 39 3
41 40 7
42 0 2
42 1 10
42 2 6
42 3 1
42 4 6
42 5 4
42 6 3
42 7 3
42 8 10
42 9 1
42 10 2
42 11 10
42 12 9
42 13 9
42 14 1
42 15 7
42 16 9
42 17 10
42 18 5
42 19 10
42 20 3
42 21 3
42 22 4
42 23 6
42 24 6
42 25 7
42 26 8
42 27 6
42 28 10
42 29 8
42 30 1
42 31 10
42 32 6
42 33 5
42 34 3
42 35 5
42 36 4
42 37 4
42 38 9
42 39 8
42 40 5
42 41 1
43 0 10
43 1 8
43 2 7
43 3 1
43 4 1
43 5 6
43 6 8
43 7 2
43 8 2
43 9 1
43 10 4
43 11 4
43 12 4
43 13 9
43 14 6
43 15 4
43 16 7
43 17 5
43 18 8
43 19 4
43 20 4
43 21 1
43 22 4
43 23 4
43 24 8
43 25 5
43 26 4
43 27 5
43 28 4
43 29 10
43 30 10
43 31 6
43 32 10
43 33 6
43 34 5
43 35 4
43 36 8
43 37 5
43 38 2
43 39 4
43 40 2
43 41 6
43 42 7
44 0 1
44 1 8
44 2 7
44 3 5
44 4 5
44 5 1
44 6 10
44 7 3
44 8 8
44 9 6
44 10 4
44 11 8
44 12 10
44 13 4
44 14 8
44 15 10
44 16 5
44 17 3
44 18 8
44 19 4
44 20 2
44 21 1
44 22 6
44 23 10
44 24 6
44 25 9
44 26 9
44 27 9
44 28 8
44 29 8
44 30 5
44 31 1
44 32 8
44 33 10
44 34 1
44 35 3
44 36 7
44 37 5
44 38 6
44 39 5
44 40 3
44 41 6
44 42 7
44 43 10
45 0 3
45 1 4
45 2 4
45 3 6
45 4 9
45 5 10
45 6 1
45 7 2
45 8 6
45 9 9
45 10 5
45 11 9
45 12 5
45 13 6
45 14 4
45 15 3
45 16 2
45 17 10
45 18 3
45 19 9
45 20 4
45 21 4
45 22 6
45 23 8
45 24 3
45 25 5
45 26 7
45 27 4
45 28 1
45 29 7
45 30 8
45 31 2
45 32 2
45 33 2
45 34 3
45 35 1
45 36 9
45 37 6
45 38 2
45 39 6
45 40 3
45 41 2
45 42 7
45 43 6
45 44 1
46 0 1
46 1 6
46 2 9
46 3 3
46 4 4
46 5 10
46 6 1
46 7 8
46 8 7
46 9 7
46 10 8
46 11 10
46 12 9
46 13 10
46 14 3
46 15 4
46 16 7
46 17 10
46 18 7
46 19 3
46 20 10
46 21 8
46 22 10
46 23 4
46 24 3
46 25 7
46 26 2
46 27 9
46 28 3
46 29 9
46 30 4
46 31 9
46 32 7
46 33 4
46 34 5
46 35 10
46 36 7
46 37 2
46 38 9
46 39 1
46 40 2
46 41 2
46 42 10
46 43 7
46 44 2
46 45 9
47 0 4
47 1 10
47 2 6
47 3 1
47 4 7
47 5 5
47 6 8
47 7 3
47 8 6
47 9 9
47 10 2
47 11 7
47 12 4
47 13 6
47 14 2
47 15 3
47 16 10
47 17 5
47 18 7
47 19 7
47 20 10
47 21 3
47 22 4
47 23 6
47 24 8
47 25 3
47 26 1
47 27 7
47 28 5
47 29 7
47 30 1
47 31 6
47 32 4
47 33 8
47 34 6
47 35 3
47 36 9
47 37 3
47 38 4
47 39 1
47 40 6
47 41 2
47 42 7
47 43 7
47 44 6
47 45 3
47 46 5
48 0 1
48 1 1
48 2 8
48 3 2
48 4 10
48 5 10
48 6 9
48 7 9
48 8 3
48 9 3
48 10 3
48 11 4
48 12 5
48 13 10
48 14 4
48 15 8
48 16 3
48 17 4
48 18 9
48 19 7
48 20 3
48 21 1
48 22 7
48 23 2
48 24 1
48 25 8
48 26 5
48 27 10
48 28 7
48 29 9
48 30 6
48 31 4
48 32 1
48 33 3
48 34 8
48 35 10
48 36 10
48 37 5
48 38 5
48 39 8
48 40 6
48 41 4
48 42 8
48 43 7
48 44 9
48 45 1
48 46 3
48 47 2
49 0 4
49 1 5
49 2 3
49 3 3
49 4 9
49 5 2
49 6 7
49 7 2
49 8 8
49 9 7
49 10 3
49 11 10
49 12 7
49 13 1
49 14 6
49 15 2
49 16 8
49 17 1
49 18 5
49 19 9
49 20 7
49 21 7
49 22 4
49 23 10
49 24 8
49 25 4
49 26 4
49 27 9
49 28 9
49 29 2
49 30 6
49 31 9
49 32 2
49 33 8
49 34 2
49 35 3
49 36 2
49 37 2
49 38 6
49 39 5
49 40 3
49 41 5
49 42 3
49 43 7
49 44 9
49 45 7
49 46 6
49 47 6
49 48 1
50 0 9
50 1 6
50 2 8
50 3 1
50 4 1
50 5 7
50 6 3
50 7 1
50 8 2
50 9 10
50 10 7
50 11 9
50 12 5
50 13 6
50 14 9
50 15 4
50 16 8
50 17 1
50 18 7
50 19 1
50 20 10
50 21 10
50 22 10
50 23 9
50 24 9
50 25 2
50 26 2
50 27 5
50 28 6
50 29 4
50 30 7
50 31 3
50 32 6
50 33 8
50 34 6
50 35 3
50 36 3
50 37 9
50 38 8
50 39 7
50 40 8
50 41 3
50 42 9
50 43 9
50 44 1
50 45 3
50 46 6
50 47 8
50 48 4
50 49 1
51 0 10
51 1 7
51 2 10
51 3 10
51 4 5
51 5 7
51 6 3
51 7 6
51 8 7
51 9 9
51 10 10
51 11 9
51 12 4
51 13 9
51 14 9
51 15 4
51 16 1
51 17 1
51 18 8
51 19 9
51 20 4
51 21 5
51 22 6
51 23 4
51 24 7
51 25 3
51 26 5
51 27 4
51 28 8
51 29 7
51 30 6
51 31 1
51 32 3
51 33 9
51 34 8
51 35 1
51 36 2
51 37 4
51 38 2
51 39 3
51 40 5
51 41 8
51 42 9
51 43 4
51 44 8
51 45 9
51 46 7
51 47 4
51 48 9
51 49 6
51 50 1
52 0 10
52 1 10
52 2 1
52 3 10
52 4 5
52 5 3
52 6 7
52 7 9
52 8 1
52 9 3
52 10 5
52 11 8
52 12 1
52 13 3
52 14 4
52 15 3
52 16 3
52 17 10
52 18 4
52 19 7
52 20 5
52 21 3
52 22 3
52 23 9
52 24 8
52 25 6
52 26 1
52 27 6
52 28 2
52 29 4
52 30 9
52 31 6
52 32 9
52 33 10
52 34 7
52 35 2
52 36 3
52 37 10
52 38 1
52 39 7
52 40 10
52 41 3
52 42 6
52 43 5
52 44 4
52 45 1
52 46 4
52 47 1
52 48 4
52 49 3
52 50 8
52 51 9
53 0 3
53 1 1
53 2 6
53 3 2
53 4 1
53 5 8
53 6 5
53 7 3
53 8 7
53 9 3
53 10 6
53 11 3
53 12 3
53 13 8
53 14 10
53 15 7
53 16 6
53 17 2
53 18 4
53 19 9
53 20 5
53 21 6
53 22 6
53 23 2
53 24 7
53 25 10
53 26 1
53 27 1
53 28 8
53 29 7
53 30 8
53 31 1
53 32 3
53 33 2
53 34 9
53 35 8
53 36 4
53 37 7
53 38 10
53 39 9
53 40 1
53 41 3
53 42 1
53 43 10
53 44 9
53 45 10
53 46 1
53 47 5
53 48 1
53 49 10
53 50 6
53 51 6
53 52 7
54 0 4
54 1 6
54 2 1
54 3 9
54 4 7
54 5 6
54 6 6
54 7 5
54 8 3
54 9 4
54 10 6
54 11 9
54 12 7
54 13 6
54 14 9
54 15 3
54 16 5
54 17 3
54 18 3
54 19 9
54 20 1
54 21 8
54 22 9
54 23 6
54 24 1
54 25 5
54 26 5
54 27 6
54 28 3
54 29 6
54 30 10
54 31 4
54 32 4
54 33 9
54 34 6
54 35 2
54 36 8
54 37 1
54 38 1
54 39 7
54 40 3
54 41 5
54 42 6
54 43 5
54 44 1
54 45 6
54 46 10
54 47 10
54 48 8
54 49 9
54 50 9
54 51 7
54 52 1
54 53 9
55 0 7
55 1 10
55 2 6
55 3 7
55 4 10
55 5 8
55 6 9
55 7 3
55 8 5
55 9 1
55 10 2
55 11 1
55 12 5
55 13 8
55 14 2
55 15 5
55 16 5
55 17 3
55 18 8
55 19 3
55 20 2
55 21 1
55 22 2
55 23 9
55 24 1
55 25 3
55 26 6
55 27 8
55 28 7
55 29 1
55 30 5
55 31 4
55 32 5
55 33 6
55 34 6
55 35 6
55 36 3
55 37 2
55 38 8
55 39 1
55 40 3
55 41 8
55 42 9
55 43 8
55 44 5
55 45 2
55 46 7
55 47 3
55 48 3
55 49 10
55 50 2
55 51 1
55 52 2
55 53 8
55 54 3
56 0 1
56 1 2
56 2 7
56 3 3
56 4 9
56 5 5
56 6 7
56 7 10
56 8 1
56 9 5
56 10 5
56 11 10
56 12 9
56 13 6
56 14 7
56 15 10
56 16 2
56 17 6
56 18 9
56 19 3
56 20 8
56 21 6
56 22 2
56 23 7
56 24 8
56 25 5
56 26 10
56 27 5
56 28 3
56 29 9
56 30 10
56 31 7
56 32 4
56 33 4
56 34 7
56 35 6
56 36 1
56 37 1
56 38 10
56 39 3
56 40 2
56 41 5
56 42 4
56 43 3
56 44 3
56 45 9
56 46 1
56 47 4
56 48 3
56 49 4
56 50 10
56 51 6
56 52 4
56 53 5
56 54 10
56 55 6
57 0 7
57 1 6
57 2 4
57 3 8
57 4 9
57 5 5
57 6 9
57 7 8
57 8 4
57 9 9
57 10 4
57 11 4
57 12 10
57 13 8
57 14 2
57 15 1
57 16 3
57 17 8
57 18 5
57 19 7
57 20 4
57 21 9
57 22 6
57 23 6
57 24 5
57 25 2
57 26 2
57 27 3
57 28 4
57 29 10
57 30 2
57 31 4
57 32 3
57 33 1
57 34 3
57 35 7
57 36 9
57 37 3
57 38 7
57 39 3
57 40 2
57 41 5
57 42 9
57 43 4
57 44 4
57 45 4
57 46 1
57 47 6
57 48 8
57 49 1
57 50 6
57 51 3
57 52 6
57 53 2
57 54 7
57 55 2
57 56 3
58 0 2
58 1 5
58 2 2
58 3 5
58 4 3
58 5 3
58 6 6
58 7 1
58 8 9
58 9 7
58 10 6
58 11 10
58 12 2
58 13 7
58 14 5
58 15 4
58 16 1
58 17 5
58 18 6
58 19 1
58 20 4
58 21 3
58 22 3
58 23 9
58 24 8
58 25 6
58 26 2
58 27 8
58 28 8
58 29 3
58 30 10
58 31 6
58 32 1
58 33 10
58 34 4
58 35 7
58 36 8
58 37 8
58 38 4
58 39 8
58 40 9
58 41 2
58 42 1
58 43 4
58 44 3
58 45 7
58 46 7
58 47 4
58 48 1
58 49 3
58 50 8
58 51 3
58 52 3
58 53 7
58 54 10
58 55 2
58 56 3
58 57 7
59 0 1
59 1 6
59 2 1
59 3 6
59 4 7
59 5 3
59 6 1
59 7 8
59 8 9
59 9 1
59 10 9
59 11 4
59 12 10
59 13 4
59 14 1
59 15 3
59 16 7
59 17 10
59 18 8
59 19 3
59 20 7
59 21 1
59 22 6
59 23 6
59 24 3
59 25 9
59 26 3
59 27 7
59 28 3
59 29 6
59 30 3
59 31 3
59 32 4
59 33 9
59 34 1
59 35 7
59 36 3
59 37 4
59 38 3
59 39 10
59 40 8
59 41 7
59 42 10
59 43 4
59 44 3
59 45 9
59 46 2
59 47 9
59 48 9
59 49 9
59 50 9
59 51 5
59 52 5
59 53 2
59 54 1
59 55 3
59 56 4
59 57 9
59 58 5
